objective value:                               -52301
C0095                                               1 	(obj:-1020)
C0021                                               1 	(obj:-1185)
C0022                                               1 	(obj:-1017)
C0023                                               1 	(obj:-1215)
C0024                                               1 	(obj:-1030)
C0025                                               1 	(obj:-600)
C0026                                               1 	(obj:-1362)
C0027                                               1 	(obj:-830)
C0028                                               1 	(obj:-1574)
C0029                                               1 	(obj:-1510)
C0030                                               1 	(obj:-1078)
C0031                                               1 	(obj:-942)
C0032                                               1 	(obj:-1435)
C0033                                               1 	(obj:-670)
C0034                                               1 	(obj:-1489)
C0035                                               1 	(obj:-684)
C0036                                               1 	(obj:-917)
C0037                                               1 	(obj:-1203)
C0038                                               1 	(obj:-1195)
C0039                                               1 	(obj:-1401)
C0040                                               1 	(obj:-1075)
C0041                                               1 	(obj:-1275)
C0042                                               1 	(obj:-1192)
C0043                                               1 	(obj:-932)
C0044                                               1 	(obj:-1234)
C0045                                               1 	(obj:-1719)
C0046                                               1 	(obj:-1503)
C0047                                               1 	(obj:-1276)
C0048                                               1 	(obj:-1382)
C0049                                               1 	(obj:-1464)
C0050                                               1 	(obj:-1183)
C0051                                               1 	(obj:-1323)
C0052                                               1 	(obj:-1273)
C0053                                               1 	(obj:-982)
C0054                                               1 	(obj:-1022)
C0055                                               1 	(obj:-1352)
C0056                                               1 	(obj:-1238)
C0057                                               1 	(obj:-1001)
C0058                                               1 	(obj:-733)
C0059                                               1 	(obj:-1497)
C0060                                               1 	(obj:-1412)
C0061                                               1 	(obj:-1647)
C0062                                               1 	(obj:-1730)
C0063                                               1 	(obj:-1368)
C0064                                               1 	(obj:-1374)
C0065                                               1 	(obj:-1478)
C0066                                               1 	(obj:-892)
C0067                                               1 	(obj:-1285)
C0068                                               1 	(obj:-1226)
C0069                                               1 	(obj:-622)
C0070                                               1 	(obj:-1142)
C0071                                               1 	(obj:-971)
C0072                                               1 	(obj:-1374)
C0073                                               1 	(obj:-1158)
C0074                                               1 	(obj:-1334)
C0075                                               1 	(obj:-1471)
C0076                                               1 	(obj:-974)
C0077                                               1 	(obj:-1105)
C0078                                               1 	(obj:-931)
C0079                                               1 	(obj:-1070)
C0080                                               1 	(obj:-1424)
C0081                                               1 	(obj:-1093)
C0082                                               1 	(obj:-1336)
C0083                                               1 	(obj:-1120)
C0084                                               1 	(obj:-995)
C0085                                               1 	(obj:-991)
C0086                                               1 	(obj:-1466)
C0087                                               1 	(obj:-1195)
C0088                                               1 	(obj:-1047)
C0089                                               1 	(obj:-1563)
C0090                                               1 	(obj:-943)
C0091                                               1 	(obj:-1598)
C0092                                               1 	(obj:-1343)
C0093                                               1 	(obj:-1002)
C0094                                               1 	(obj:-1401)
C0269                                               8 	(obj:100)
C0268                                               1 	(obj:100)
C0267                                               4 	(obj:100)
C0266                                               6 	(obj:100)
C0265                                               2 	(obj:100)
C0264                                               6 	(obj:100)
C0263                                               3 	(obj:100)
C0262                                               6 	(obj:100)
C0261                                               5 	(obj:100)
C0260                                               1 	(obj:100)
C0259                                               3 	(obj:100)
C0258                                               3 	(obj:100)
C0257                                               6 	(obj:100)
C0256                                               1 	(obj:100)
C0255                                               8 	(obj:100)
C0254                                               1 	(obj:100)
C0253                                               4 	(obj:100)
C0252                                               3 	(obj:100)
C0251                                               4 	(obj:100)
C0250                                               8 	(obj:100)
C0249                                               7 	(obj:100)
C0248                                               7 	(obj:100)
C0247                                               6 	(obj:100)
C0246                                               3 	(obj:100)
C0245                                               2 	(obj:100)
C0244                                               1 	(obj:100)
C0243                                               7 	(obj:100)
C0242                                               5 	(obj:100)
C0241                                               1 	(obj:100)
C0240                                               7 	(obj:100)
C0239                                               8 	(obj:100)
C0238                                               4 	(obj:100)
C0237                                               8 	(obj:100)
C0236                                               7 	(obj:100)
C0235                                               5 	(obj:100)
C0234                                               8 	(obj:100)
C0233                                               2 	(obj:100)
C0232                                               2 	(obj:100)
C0231                                               3 	(obj:100)
C0230                                               8 	(obj:100)
C0229                                               1 	(obj:100)
C0228                                               2 	(obj:100)
C0227                                               5 	(obj:100)
C0226                                               4 	(obj:100)
C0225                                               4 	(obj:100)
C0224                                               7 	(obj:100)
C0223                                               8 	(obj:100)
C0222                                               6 	(obj:100)
C0221                                               7 	(obj:100)
C0220                                               8 	(obj:100)
C0219                                               7 	(obj:100)
C0218                                               3 	(obj:100)
C0217                                               3 	(obj:100)
C0216                                               4 	(obj:100)
C0215                                               3 	(obj:100)
C0214                                               5 	(obj:100)
C0213                                               3 	(obj:100)
C0212                                               5 	(obj:100)
C0211                                               2 	(obj:100)
C0210                                               1 	(obj:100)
C0209                                               7 	(obj:100)
C0208                                               1 	(obj:100)
C0207                                               8 	(obj:100)
C0206                                               1 	(obj:100)
C0205                                               4 	(obj:100)
C0204                                               7 	(obj:100)
C0203                                               7 	(obj:100)
C0202                                               4 	(obj:100)
C0201                                               7 	(obj:100)
C0200                                               1 	(obj:100)
C0199                                               2 	(obj:100)
C0198                                               5 	(obj:100)
C0197                                               3 	(obj:100)
C0196                                               6 	(obj:100)
C0270                                               4 	(obj:100)
C0013                                               9 	(obj:117)
C0015                                               4 	(obj:143)
C0008                                              18 	(obj:126)
